NAME : random599130
COMMENT: random generated with id 599130
TYPE : TSP
DIMENSION : 10
EDGE_WEIGHT_TYPE : EUC_2D
NODE_COORD_SECTION
1 10.703134 18.589322
2 17.326131 3.312991
3 13.021520 8.478456
4 8.823262 9.796521
5 18.771125 19.236448
6 13.222566 0.680060
7 15.802884 3.275770
8 2.238230 13.038145
9 1.186522 18.472179
10 8.843159 10.878020
EOF
